Gurobi 12.0.3:   lim:time = 14400
  mip:bestbound = 1
Set parameter LogToConsole to value 1
  tech:outlev = 1
Set parameter InfUnbdInfo to value 1
Gurobi Optimizer version 12.0.3 build v12.0.3rc0 (win64 - Windows 10.0 (19045.2))

CPU model: 11th Gen Intel(R) Core(TM) i7-11700 @ 2.50GHz, instruction set [SSE2|AVX|AVX2|AVX512]
Thread count: 8 physical cores, 16 logical processors, using up to 16 threads

Non-default parameters:
TimeLimit  14400
InfUnbdInfo  1

Optimize a model with 300 rows, 562 columns and 2765 nonzeros
Model fingerprint: 0x74181317
Model has 4 quadratic objective terms
Model has 7 quadratic constraints
Variable types: 28 continuous, 534 integer (0 binary)
Coefficient statistics:
  Matrix range     [1e+00, 1e+05]
  QMatrix range    [1e+00, 1e+00]
  QLMatrix range   [1e+00, 3e+01]
  Objective range  [4e-01, 3e+01]
  QObjective range [1e+00, 1e+00]
  Bounds range     [1e+00, 8e+01]
  RHS range        [1e+00, 1e+05]
  QRHS range       [1e+02, 1e+02]
Presolve removed 17 rows and 15 columns
Presolve time: 0.01s
Presolved: 624 rows, 875 columns, 4164 nonzeros
Variable types: 164 continuous, 711 integer (635 binary)
Found heuristic solution: objective 124.2012000

Root relaxation: objective 4.227187e+01, 59 iterations, 0.00 seconds (0.00 work units)

    Nodes    |    Current Node    |     Objective Bounds      |     Work
 Expl Unexpl |  Obj  Depth IntInf | Incumbent    BestBd   Gap | It/Node Time

     0     0   42.27187    0   19  124.20120   42.27187  66.0%     -    0s
H    0     0                     108.8124000   42.27187  61.2%     -    0s
     0     0   64.20505    0   22  108.81240   64.20505  41.0%     -    0s
     0     0   64.80355    0   16  108.81240   64.80355  40.4%     -    0s
     0     0   65.72820    0   18  108.81240   65.72820  39.6%     -    0s
     0     0   65.80358    0   19  108.81240   65.80358  39.5%     -    0s
     0     0   65.81419    0   21  108.81240   65.81419  39.5%     -    0s
H    0     0                     108.6548000   65.81419  39.4%     -    0s
     0     0   66.68706    0   19  108.65480   66.68706  38.6%     -    0s
     0     0   66.69208    0   15  108.65480   66.69208  38.6%     -    0s
H    0     0                     105.3524000   66.69208  36.7%     -    0s
     0     0   66.69208    0   15  105.35240   66.69208  36.7%     -    0s
     0     0   67.09352    0   21  105.35240   67.09352  36.3%     -    0s
     0     0   67.09352    0   18  105.35240   67.09352  36.3%     -    0s
H    0     2                      99.3524000   67.09352  32.5%     -    0s
     0     2   67.09352    0   18   99.35240   67.09352  32.5%     -    0s
H  103   136                      98.1041000   67.09363  31.6%  15.1    0s
*  389   298              37      94.7720000   67.09444  29.2%  10.6    0s
H  497   421                      94.3034000   67.09488  28.9%  10.0    0s
H 1038   663                      94.0995000   67.10064  28.7%   8.6    0s
* 1903   971              20      93.7256000   68.07965  27.4%   9.7    0s
H 2407  1172                      91.2665000   70.96599  22.2%  10.6    1s
 22995  4354   85.49487   37   18   91.26650   78.70052  13.8%  11.9    5s
*24376  4432              43      91.2664989   78.84603  13.6%  11.9    5s
*26438  4649              39      91.2664953   79.27424  13.1%  11.9    5s
 41871  5932   85.15875   24   29   91.26650   81.80250  10.4%  11.8   10s
 66279  3127 infeasible   40        91.26650   85.63268  6.17%  11.6   15s

Cutting planes:
  Learned: 21
  Gomory: 8
  Cover: 46
  Implied bound: 48
  Projected implied bound: 14
  Clique: 2
  MIR: 87
  Mixing: 3
  StrongCG: 5
  Flow cover: 340
  GUB cover: 2
  Inf proof: 13
  Zero half: 16
  RLT: 67
  Relax-and-lift: 3

Explored 75658 nodes (873344 simplex iterations) in 16.85 seconds (8.94 work units)
Thread count was 16 (of 16 available processors)

Solution count 10: 91.2665 91.2665 91.2665 ... 99.3524

Optimal solution found (tolerance 1.00e-04)
Best objective 9.126650000000e+01, best bound 9.126650000000e+01, gap 0.0000%

AMPL MP initial flat model has 562 variables (0 integer, 534 binary);
Objectives: 1 quadratic; 
Constraints:  300 linear; 7 quadratic;

AMPL MP final model has 562 variables (0 integer, 534 binary);
Objectives: 1 quadratic; 
Constraints:  300 linear; 7 quadratic;


-----RESULTS INFO-----
running_time:  16.891000000000002
TC.best_bound:  91.2665
TC:  91.2665
MIP Gap (%):  0
=== Vehicle Routes ===
Vehicle 1: 0 → 18
Vehicle 2: 0 → 2
Vehicle 2: 2 → 11
Vehicle 2: 11 → 15
Vehicle 2: 15 → 18
Vehicle 3: 0 → 3
Vehicle 3: 1 → 12
Vehicle 3: 3 → 1
Vehicle 3: 12 → 18

=== Full Vehicle Routes ===
Vehicle 1: 0 → 0 (0<100)
Vehicle 2: 0 → 2 → 11 → 15 → 0 (79<100)
Vehicle 3: 0 → 3 → 1 → 12 → 0 (65<100)
Arc used by MRT line: y variables:
MRT used: 11 → 10
MRT used: 12 → 13
MRT used: 15 → 14
Customer assigment to PL: u variables:
4 10
5 11
6 12
7 14
8 15
9 13
Node is served by regular vehicle: g variables:
1
2
3
11
12
15
Customer assigment to Home delivery: gm variables:
1
2
3
Node total demands: ntd variables:
1 25 1
2 25 1
3 6 1
7 0 0
8 0 0
9 0 0
16 0 0
17 0 0
10 0 0
11 40 1
12 34 1
13 0 0
14 0 0
15 14 1
Customer's demand delivered to PL: l variables:
4
5
6
7
8
9
Lockers load <= capacity:
0 <= 73
0 <= 88
29 <= 84
11 <= 69
12 <= 52
22 <= 63
8 <= 82
6 <= 71
